6,2	0,0	17,2	11,5	0,0	0,0	0,0	0,0	0,0	19,7
19,3	11,4	0,0	6,0	14,6	0,0	0,0	10,8	0,0	0,0
0,0	0,0	7,4	0,0	19,3	7,8	0,0	0,0	11,4	0,0
12,4	0,0	12,9	0,0	0,0	0,0	6,2	0,0	0,0	0,0
0,0	6,2	0,0	17,5	7,9	0,0	0,0	18,2	0,0	0,0
0,0	19,0	12,2	0,0	19,9	8,7	0,0	0,0	11,6	0,0
0,0	14,6	0,0	9,5	0,0	0,0	6,3	0,0	0,0	14,9
14,1	0,0	16,9	0,0	0,0	0,0	0,0	0,0	0,0	10,8
0,0	14,2	0,0	16,3	17,8	0,0	0,0	12,1	0,0	0,0
0,0	0,0	11,9	0,0	0,0	15,0	14,2	0,0	0,0	16,9
0,0	14,7	0,0	0,0	14,8	0,0	12,4	0,0	6,0	16,7
5,9	0,0	5,8	0,0	17,7	0,0	16,4	11,0	6,0	0,0
0,0	12,2	0,0	0,0	0,0	7,7	0,0	5,7	6,6	13,4
17,8	19,7	10,0	0,0	0,0	7,0	0,0	12,8	5,7	0,0
16,9	0,0	17,5	0,0	16,3	10,4	12,1	7,1	0,0	0,0
0,0	10,0	0,0	11,8	0,0	14,1	0,0	12,3	0,0	0,0
14,6	0,0	11,7	7,6	7,1	0,0	0,0	5,6	0,0	0,0
0,0	0,0	18,4	0,0	0,0	9,5	7,3	0,0	9,7	12,7
8,2	0,0	0,0	5,3	17,0	17,1	10,4	14,4	0,0	5,7
0,0	18,9	0,0	7,3	0,0	0,0	9,6	0,0	15,2	15,6
									
4,8	2,9	4,4	3,2	2,8	2,6	3,1	3,6	4,3	4,3
